
<<< setup

Version identifier: 22.1.1.0 | 2022-11-27 | 9160aff4d
Tried aggregator 1 time.
LP Presolve eliminated 108 rows and 87 columns.
Reduced LP has 1 rows, 6 columns, and 6 nonzeros.
Presolve time = 0.00 sec. (0.04 ticks)

Iteration log . . .
Iteration:     1   Dual objective     =          1154.363912
main returns 0

<<< main


<<< done

